Route #1: 146 90 110 114 124 137 80 68 36 25 108
Route #2: 74 143 136 45 55 38 34 64 53 82 115 19
Route #3: 153 47 11 117 56 122 113 59 85 72 70
Route #4: 46 149 99 49 78 129 91 9
Route #5: 118 148 126 112 66 132 16 103 84 131
Route #6: 51 86 44 133 138 23
Route #7: 75 140 88 150 6
Route #8: 89 48 30 145 35
Route #9: 147 69 77 152 97 101 71 92 120 5
Route #10: 106 24 42
Route #11: 40 142 100 10 111
Route #12: 130 15 67
Route #13: 144 104 119 57 60 127 32 4
Route #14: 50 41 87 93 107 151 61 2
Route #15: 139 98 123 141 20
Route #16: 22 54
Route #17: 121 29 31
Route #18: 94 128 52 134 109 95 13
Route #19: 79 81 33 62 102 63 28 96 43
Route #20: 73 21 39
Route #21: 14 7 125
Route #22: 18 135 76 37
Route #23: 26 105
Route #24: 27 116 65 58 83
Route #25: 3
Route #26: 17
Route #27: 8 12
